nbGenes = 10;
preference = [[0 89 57 54 83 80 82 45 60 50 ]
[11 0 45 73 27 93 78 60 98 32 ]
[43 55 0 72 58 63 20 35 81 41 ]
[46 27 28 0 69 11 18 25 75 32 ]
[17 73 42 31 0 58 75 45 75 69 ]
[20 7 37 89 42 0 98 61 35 68 ]
[18 22 80 82 25 2 0 92 85 60 ]
[55 40 65 75 55 39 8 0 6 67 ]
[40 2 19 25 25 65 15 94 0 49 ]
[50 68 59 68 31 32 40 33 51 0 ]
];
